p cnf 150 865
1 2 3 4 5 6 0
7 8 9 10 11 12 0
13 14 15 16 17 18 0
19 20 21 22 23 24 0
25 26 27 28 29 30 0
31 32 33 34 35 36 0
37 38 39 40 41 42 0
43 44 45 46 47 48 0
49 50 51 52 53 54 0
55 56 57 58 59 60 0
61 62 63 64 65 66 0
67 68 69 70 71 72 0
73 74 75 76 77 78 0
79 80 81 82 83 84 0
85 86 87 88 89 90 0
91 92 93 94 95 96 0
97 98 99 100 101 102 0
103 104 105 106 107 108 0
109 110 111 112 113 114 0
115 116 117 118 119 120 0
121 122 123 124 125 126 0
127 128 129 130 131 132 0
133 134 135 136 137 138 0
139 140 141 142 143 144 0
145 146 147 148 149 150 0
-1 -7 0
-2 -8 0
-3 -9 0
-4 -10 0
-5 -11 0
-6 -12 0
-1 -13 0
-2 -14 0
-3 -15 0
-4 -16 0
-5 -17 0
-6 -18 0
-1 -43 0
-2 -44 0
-3 -45 0
-4 -46 0
-5 -47 0
-6 -48 0
-1 -61 0
-2 -62 0
-3 -63 0
-4 -64 0
-5 -65 0
-6 -66 0
-1 -67 0
-2 -68 0
-3 -69 0
-4 -70 0
-5 -71 0
-6 -72 0
-1 -79 0
-2 -80 0
-3 -81 0
-4 -82 0
-5 -83 0
-6 -84 0
-1 -85 0
-2 -86 0
-3 -87 0
-4 -88 0
-5 -89 0
-6 -90 0
-1 -91 0
-2 -92 0
-3 -93 0
-4 -94 0
-5 -95 0
-6 -96 0
-1 -103 0
-2 -104 0
-3 -105 0
-4 -106 0
-5 -107 0
-6 -108 0
-1 -115 0
-2 -116 0
-3 -117 0
-4 -118 0
-5 -119 0
-6 -120 0
-1 -121 0
-2 -122 0
-3 -123 0
-4 -124 0
-5 -125 0
-6 -126 0
-1 -127 0
-2 -128 0
-3 -129 0
-4 -130 0
-5 -131 0
-6 -132 0
-1 -139 0
-2 -140 0
-3 -141 0
-4 -142 0
-5 -143 0
-6 -144 0
-1 -145 0
-2 -146 0
-3 -147 0
-4 -148 0
-5 -149 0
-6 -150 0
-7 -25 0
-8 -26 0
-9 -27 0
-10 -28 0
-11 -29 0
-12 -30 0
-7 -31 0
-8 -32 0
-9 -33 0
-10 -34 0
-11 -35 0
-12 -36 0
-7 -37 0
-8 -38 0
-9 -39 0
-10 -40 0
-11 -41 0
-12 -42 0
-7 -55 0
-8 -56 0
-9 -57 0
-10 -58 0
-11 -59 0
-12 -60 0
-7 -61 0
-8 -62 0
-9 -63 0
-10 -64 0
-11 -65 0
-12 -66 0
-7 -67 0
-8 -68 0
-9 -69 0
-10 -70 0
-11 -71 0
-12 -72 0
-7 -85 0
-8 -86 0
-9 -87 0
-10 -88 0
-11 -89 0
-12 -90 0
-7 -103 0
-8 -104 0
-9 -105 0
-10 -106 0
-11 -107 0
-12 -108 0
-7 -115 0
-8 -116 0
-9 -117 0
-10 -118 0
-11 -119 0
-12 -120 0
-7 -121 0
-8 -122 0
-9 -123 0
-10 -124 0
-11 -125 0
-12 -126 0
-7 -127 0
-8 -128 0
-9 -129 0
-10 -130 0
-11 -131 0
-12 -132 0
-7 -133 0
-8 -134 0
-9 -135 0
-10 -136 0
-11 -137 0
-12 -138 0
-7 -145 0
-8 -146 0
-9 -147 0
-10 -148 0
-11 -149 0
-12 -150 0
-13 -19 0
-14 -20 0
-15 -21 0
-16 -22 0
-17 -23 0
-18 -24 0
-13 -31 0
-14 -32 0
-15 -33 0
-16 -34 0
-17 -35 0
-18 -36 0
-13 -37 0
-14 -38 0
-15 -39 0
-16 -40 0
-17 -41 0
-18 -42 0
-13 -55 0
-14 -56 0
-15 -57 0
-16 -58 0
-17 -59 0
-18 -60 0
-13 -61 0
-14 -62 0
-15 -63 0
-16 -64 0
-17 -65 0
-18 -66 0
-13 -91 0
-14 -92 0
-15 -93 0
-16 -94 0
-17 -95 0
-18 -96 0
-13 -109 0
-14 -110 0
-15 -111 0
-16 -112 0
-17 -113 0
-18 -114 0
-13 -121 0
-14 -122 0
-15 -123 0
-16 -124 0
-17 -125 0
-18 -126 0
-13 -133 0
-14 -134 0
-15 -135 0
-16 -136 0
-17 -137 0
-18 -138 0
-13 -139 0
-14 -140 0
-15 -141 0
-16 -142 0
-17 -143 0
-18 -144 0
-13 -145 0
-14 -146 0
-15 -147 0
-16 -148 0
-17 -149 0
-18 -150 0
-19 -31 0
-20 -32 0
-21 -33 0
-22 -34 0
-23 -35 0
-24 -36 0
-19 -43 0
-20 -44 0
-21 -45 0
-22 -46 0
-23 -47 0
-24 -48 0
-19 -49 0
-20 -50 0
-21 -51 0
-22 -52 0
-23 -53 0
-24 -54 0
-19 -55 0
-20 -56 0
-21 -57 0
-22 -58 0
-23 -59 0
-24 -60 0
-19 -73 0
-20 -74 0
-21 -75 0
-22 -76 0
-23 -77 0
-24 -78 0
-19 -97 0
-20 -98 0
-21 -99 0
-22 -100 0
-23 -101 0
-24 -102 0
-19 -109 0
-20 -110 0
-21 -111 0
-22 -112 0
-23 -113 0
-24 -114 0
-19 -121 0
-20 -122 0
-21 -123 0
-22 -124 0
-23 -125 0
-24 -126 0
-19 -145 0
-20 -146 0
-21 -147 0
-22 -148 0
-23 -149 0
-24 -150 0
-25 -37 0
-26 -38 0
-27 -39 0
-28 -40 0
-29 -41 0
-30 -42 0
-25 -55 0
-26 -56 0
-27 -57 0
-28 -58 0
-29 -59 0
-30 -60 0
-25 -61 0
-26 -62 0
-27 -63 0
-28 -64 0
-29 -65 0
-30 -66 0
-25 -67 0
-26 -68 0
-27 -69 0
-28 -70 0
-29 -71 0
-30 -72 0
-25 -79 0
-26 -80 0
-27 -81 0
-28 -82 0
-29 -83 0
-30 -84 0
-25 -91 0
-26 -92 0
-27 -93 0
-28 -94 0
-29 -95 0
-30 -96 0
-25 -103 0
-26 -104 0
-27 -105 0
-28 -106 0
-29 -107 0
-30 -108 0
-25 -115 0
-26 -116 0
-27 -117 0
-28 -118 0
-29 -119 0
-30 -120 0
-25 -121 0
-26 -122 0
-27 -123 0
-28 -124 0
-29 -125 0
-30 -126 0
-25 -127 0
-26 -128 0
-27 -129 0
-28 -130 0
-29 -131 0
-30 -132 0
-25 -139 0
-26 -140 0
-27 -141 0
-28 -142 0
-29 -143 0
-30 -144 0
-31 -37 0
-32 -38 0
-33 -39 0
-34 -40 0
-35 -41 0
-36 -42 0
-31 -55 0
-32 -56 0
-33 -57 0
-34 -58 0
-35 -59 0
-36 -60 0
-31 -61 0
-32 -62 0
-33 -63 0
-34 -64 0
-35 -65 0
-36 -66 0
-31 -67 0
-32 -68 0
-33 -69 0
-34 -70 0
-35 -71 0
-36 -72 0
-31 -97 0
-32 -98 0
-33 -99 0
-34 -100 0
-35 -101 0
-36 -102 0
-31 -103 0
-32 -104 0
-33 -105 0
-34 -106 0
-35 -107 0
-36 -108 0
-31 -133 0
-32 -134 0
-33 -135 0
-34 -136 0
-35 -137 0
-36 -138 0
-37 -43 0
-38 -44 0
-39 -45 0
-40 -46 0
-41 -47 0
-42 -48 0
-37 -49 0
-38 -50 0
-39 -51 0
-40 -52 0
-41 -53 0
-42 -54 0
-37 -55 0
-38 -56 0
-39 -57 0
-40 -58 0
-41 -59 0
-42 -60 0
-37 -61 0
-38 -62 0
-39 -63 0
-40 -64 0
-41 -65 0
-42 -66 0
-37 -67 0
-38 -68 0
-39 -69 0
-40 -70 0
-41 -71 0
-42 -72 0
-37 -85 0
-38 -86 0
-39 -87 0
-40 -88 0
-41 -89 0
-42 -90 0
-37 -97 0
-38 -98 0
-39 -99 0
-40 -100 0
-41 -101 0
-42 -102 0
-37 -103 0
-38 -104 0
-39 -105 0
-40 -106 0
-41 -107 0
-42 -108 0
-37 -133 0
-38 -134 0
-39 -135 0
-40 -136 0
-41 -137 0
-42 -138 0
-37 -139 0
-38 -140 0
-39 -141 0
-40 -142 0
-41 -143 0
-42 -144 0
-37 -145 0
-38 -146 0
-39 -147 0
-40 -148 0
-41 -149 0
-42 -150 0
-43 -49 0
-44 -50 0
-45 -51 0
-46 -52 0
-47 -53 0
-48 -54 0
-43 -67 0
-44 -68 0
-45 -69 0
-46 -70 0
-47 -71 0
-48 -72 0
-43 -73 0
-44 -74 0
-45 -75 0
-46 -76 0
-47 -77 0
-48 -78 0
-43 -91 0
-44 -92 0
-45 -93 0
-46 -94 0
-47 -95 0
-48 -96 0
-43 -97 0
-44 -98 0
-45 -99 0
-46 -100 0
-47 -101 0
-48 -102 0
-43 -109 0
-44 -110 0
-45 -111 0
-46 -112 0
-47 -113 0
-48 -114 0
-43 -115 0
-44 -116 0
-45 -117 0
-46 -118 0
-47 -119 0
-48 -120 0
-43 -127 0
-44 -128 0
-45 -129 0
-46 -130 0
-47 -131 0
-48 -132 0
-49 -55 0
-50 -56 0
-51 -57 0
-52 -58 0
-53 -59 0
-54 -60 0
-49 -67 0
-50 -68 0
-51 -69 0
-52 -70 0
-53 -71 0
-54 -72 0
-49 -79 0
-50 -80 0
-51 -81 0
-52 -82 0
-53 -83 0
-54 -84 0
-49 -85 0
-50 -86 0
-51 -87 0
-52 -88 0
-53 -89 0
-54 -90 0
-49 -97 0
-50 -98 0
-51 -99 0
-52 -100 0
-53 -101 0
-54 -102 0
-49 -103 0
-50 -104 0
-51 -105 0
-52 -106 0
-53 -107 0
-54 -108 0
-55 -73 0
-56 -74 0
-57 -75 0
-58 -76 0
-59 -77 0
-60 -78 0
-55 -91 0
-56 -92 0
-57 -93 0
-58 -94 0
-59 -95 0
-60 -96 0
-55 -115 0
-56 -116 0
-57 -117 0
-58 -118 0
-59 -119 0
-60 -120 0
-55 -121 0
-56 -122 0
-57 -123 0
-58 -124 0
-59 -125 0
-60 -126 0
-61 -79 0
-62 -80 0
-63 -81 0
-64 -82 0
-65 -83 0
-66 -84 0
-61 -85 0
-62 -86 0
-63 -87 0
-64 -88 0
-65 -89 0
-66 -90 0
-61 -91 0
-62 -92 0
-63 -93 0
-64 -94 0
-65 -95 0
-66 -96 0
-61 -97 0
-62 -98 0
-63 -99 0
-64 -100 0
-65 -101 0
-66 -102 0
-61 -115 0
-62 -116 0
-63 -117 0
-64 -118 0
-65 -119 0
-66 -120 0
-61 -127 0
-62 -128 0
-63 -129 0
-64 -130 0
-65 -131 0
-66 -132 0
-61 -133 0
-62 -134 0
-63 -135 0
-64 -136 0
-65 -137 0
-66 -138 0
-61 -145 0
-62 -146 0
-63 -147 0
-64 -148 0
-65 -149 0
-66 -150 0
-67 -85 0
-68 -86 0
-69 -87 0
-70 -88 0
-71 -89 0
-72 -90 0
-67 -139 0
-68 -140 0
-69 -141 0
-70 -142 0
-71 -143 0
-72 -144 0
-73 -79 0
-74 -80 0
-75 -81 0
-76 -82 0
-77 -83 0
-78 -84 0
-73 -85 0
-74 -86 0
-75 -87 0
-76 -88 0
-77 -89 0
-78 -90 0
-73 -91 0
-74 -92 0
-75 -93 0
-76 -94 0
-77 -95 0
-78 -96 0
-73 -97 0
-74 -98 0
-75 -99 0
-76 -100 0
-77 -101 0
-78 -102 0
-73 -103 0
-74 -104 0
-75 -105 0
-76 -106 0
-77 -107 0
-78 -108 0
-73 -109 0
-74 -110 0
-75 -111 0
-76 -112 0
-77 -113 0
-78 -114 0
-73 -115 0
-74 -116 0
-75 -117 0
-76 -118 0
-77 -119 0
-78 -120 0
-73 -139 0
-74 -140 0
-75 -141 0
-76 -142 0
-77 -143 0
-78 -144 0
-79 -97 0
-80 -98 0
-81 -99 0
-82 -100 0
-83 -101 0
-84 -102 0
-79 -115 0
-80 -116 0
-81 -117 0
-82 -118 0
-83 -119 0
-84 -120 0
-79 -145 0
-80 -146 0
-81 -147 0
-82 -148 0
-83 -149 0
-84 -150 0
-85 -91 0
-86 -92 0
-87 -93 0
-88 -94 0
-89 -95 0
-90 -96 0
-85 -121 0
-86 -122 0
-87 -123 0
-88 -124 0
-89 -125 0
-90 -126 0
-85 -127 0
-86 -128 0
-87 -129 0
-88 -130 0
-89 -131 0
-90 -132 0
-85 -133 0
-86 -134 0
-87 -135 0
-88 -136 0
-89 -137 0
-90 -138 0
-85 -139 0
-86 -140 0
-87 -141 0
-88 -142 0
-89 -143 0
-90 -144 0
-85 -145 0
-86 -146 0
-87 -147 0
-88 -148 0
-89 -149 0
-90 -150 0
-91 -103 0
-92 -104 0
-93 -105 0
-94 -106 0
-95 -107 0
-96 -108 0
-91 -121 0
-92 -122 0
-93 -123 0
-94 -124 0
-95 -125 0
-96 -126 0
-91 -127 0
-92 -128 0
-93 -129 0
-94 -130 0
-95 -131 0
-96 -132 0
-91 -139 0
-92 -140 0
-93 -141 0
-94 -142 0
-95 -143 0
-96 -144 0
-97 -103 0
-98 -104 0
-99 -105 0
-100 -106 0
-101 -107 0
-102 -108 0
-97 -115 0
-98 -116 0
-99 -117 0
-100 -118 0
-101 -119 0
-102 -120 0
-97 -127 0
-98 -128 0
-99 -129 0
-100 -130 0
-101 -131 0
-102 -132 0
-97 -133 0
-98 -134 0
-99 -135 0
-100 -136 0
-101 -137 0
-102 -138 0
-103 -109 0
-104 -110 0
-105 -111 0
-106 -112 0
-107 -113 0
-108 -114 0
-103 -133 0
-104 -134 0
-105 -135 0
-106 -136 0
-107 -137 0
-108 -138 0
-103 -139 0
-104 -140 0
-105 -141 0
-106 -142 0
-107 -143 0
-108 -144 0
-109 -145 0
-110 -146 0
-111 -147 0
-112 -148 0
-113 -149 0
-114 -150 0
-115 -121 0
-116 -122 0
-117 -123 0
-118 -124 0
-119 -125 0
-120 -126 0
-121 -145 0
-122 -146 0
-123 -147 0
-124 -148 0
-125 -149 0
-126 -150 0
-127 -133 0
-128 -134 0
-129 -135 0
-130 -136 0
-131 -137 0
-132 -138 0
-127 -139 0
-128 -140 0
-129 -141 0
-130 -142 0
-131 -143 0
-132 -144 0
-127 -145 0
-128 -146 0
-129 -147 0
-130 -148 0
-131 -149 0
-132 -150 0
-133 -139 0
-134 -140 0
-135 -141 0
-136 -142 0
-137 -143 0
-138 -144 0
-139 -145 0
-140 -146 0
-141 -147 0
-142 -148 0
-143 -149 0
-144 -150 0
